N = 13;
H = 5;
T = 2;

avail = array3d(1..N, 1..H, 1..T, [0, 10, 7, 8, 9, 4, 5, 6, 2, 9, 0, 10, 7, 3, 6, 4, 4, 4, 3, 3, 9, 1, 8, 0, 6, 3, 5, 1, 0, 1, 2, 5, 3, 10, 10, 0, 5, 5, 3, 10, 2, 9, 5, 10, 1, 1, 2, 5, 9, 3, 9, 3, 3, 10, 9, 8, 9, 2, 8, 2, 7, 7, 2, 5, 5, 0, 4, 0, 2, 9, 4, 4, 9, 7, 1, 8, 6, 5, 5, 9, 10, 6, 6, 4, 6, 4, 9, 1, 0, 6, 3, 3, 1, 4, 5, 8, 6, 4, 2, 4, 10, 9, 3, 2, 9, 2, 9, 3, 0, 4, 3, 7, 8, 9, 0, 3, 5, 1, 4, 7, 0, 8, 7, 0, 10, 6, 8, 1, 9, 7]);

r = array2d(1..H, 1..T, [3, 3, 4, 1, 4, 5, 3, 2, 4, 1]);
